
Gurobi 10.0.3 (linux64, gurobi_cl) logging started Thu Nov  2 11:33:59 2023

Set parameter Username
Set parameter TimeLimit to value 3600
Set parameter LogFile to value "RCPSP_249.log"
Set parameter Threads to value 32
Academic license - for non-commercial use only - expires 2024-10-30
Using license file /home/jrivera6/gurobi-licenses/v1003/compute-0-34/gurobi.lic

Gurobi Optimizer version 10.0.3 build v10.0.3rc0 (linux64)
Copyright (c) 2023, Gurobi Optimization, LLC

Read MPS format model from file RCPSP_249.mps
Reading time = 0.01 seconds
RCPSP_249: 5339 rows, 2080 columns, 17984 nonzeros

CPU model: Intel(R) Xeon(R) Gold 6130 CPU @ 2.10GHz, instruction set [SSE2|AVX|AVX2|AVX512]
Thread count: 32 physical cores, 32 logical processors, using up to 32 threads

Optimize a model with 5339 rows, 2080 columns and 17984 nonzeros
Model fingerprint: 0x06937bbe
Variable types: 32 continuous, 2048 integer (2048 binary)
Coefficient statistics:
  Matrix range     [1e+00, 2e+02]
  Objective range  [1e+00, 1e+00]
  Bounds range     [1e+00, 1e+00]
  RHS range        [1e+00, 2e+02]
Presolve removed 3577 rows and 1408 columns
Presolve time: 0.19s
Presolved: 1762 rows, 672 columns, 5684 nonzeros
Variable types: 31 continuous, 641 integer (641 binary)

Root relaxation: objective 6.100000e+01, 225 iterations, 0.00 seconds (0.00 work units)

    Nodes    |    Current Node    |     Objective Bounds      |     Work
 Expl Unexpl |  Obj  Depth IntInf | Incumbent    BestBd   Gap | It/Node Time

     0     0   61.00000    0   17          -   61.00000      -     -    0s
     0     0   61.00000    0   74          -   61.00000      -     -    0s
     0     0   61.00000    0   66          -   61.00000      -     -    0s
     0     0   61.04724    0   46          -   61.04724      -     -    0s
H    0     0                     109.0000000   61.04724  44.0%     -    0s
     0     0   61.04724    0   46  109.00000   61.04724  44.0%     -    0s
     0     0   64.03815    0   72  109.00000   64.03815  41.2%     -    1s
     0     0   64.04042    0   58  109.00000   64.04042  41.2%     -    1s
     0     0   64.05780    0   53  109.00000   64.05780  41.2%     -    1s
     0     0   64.05780    0   53  109.00000   64.05780  41.2%     -    1s
     0     0   65.01590    0   46  109.00000   65.01590  40.4%     -    1s
     0     0   65.03139    0   42  109.00000   65.03139  40.3%     -    1s
     0     0   65.03139    0   42  109.00000   65.03139  40.3%     -    1s
     0     0   65.12719    0   86  109.00000   65.12719  40.3%     -    1s
     0     0   65.12719    0   62  109.00000   65.12719  40.3%     -    1s
H    0     0                     108.0000000   65.12719  39.7%     -    1s
     0     0   65.13996    0   58  108.00000   65.13996  39.7%     -    1s
     0     0   65.13996    0   51  108.00000   65.13996  39.7%     -    1s
H    0     0                     106.0000000   65.13996  38.5%     -    1s
     0     0   65.13996    0   67  106.00000   65.13996  38.5%     -    1s
H    0     0                     103.0000000   65.13996  36.8%     -    1s
     0     0   65.13996    0   82  103.00000   65.13996  36.8%     -    1s
H    0     0                      99.0000000   65.13996  34.2%     -    2s
     0     0   65.13996    0   43   99.00000   65.13996  34.2%     -    2s
     0     0   65.13996    0   46   99.00000   65.13996  34.2%     -    2s
H    0     0                      93.0000000   65.13996  30.0%     -    2s
H    0     0                      92.0000000   65.13996  29.2%     -    2s
     0     0   65.13996    0   42   92.00000   65.13996  29.2%     -    2s
H    0     0                      91.0000000   65.13996  28.4%     -    3s
     0     0   65.13996    0   55   91.00000   65.13996  28.4%     -    3s
     0     0   65.13996    0   60   91.00000   65.13996  28.4%     -    3s
     0     0   65.13996    0   25   91.00000   65.13996  28.4%     -    3s
H    0     0                      88.0000000   65.13996  26.0%     -    3s
     0     2   65.13996    0   21   88.00000   65.13996  26.0%     -    4s
     7    14   69.42074    3   78   88.00000   66.35802  24.6%   139    5s
H   39    47                      88.0000000   69.95885  20.5%   155    6s
   311   291   86.00000   11   64   88.00000   70.00000  20.5%  66.8   10s
H  839   456                      87.0000000   70.00000  19.5%  41.3   27s
H  887   456                      86.0000000   70.00000  18.6%  41.2   27s
  2131   601 infeasible   14        86.00000   70.00000  18.6%  32.9   31s
H 2134   601                      85.0000000   70.00000  17.6%  32.9   31s
  3522   747   84.57057   21   34   85.00000   70.09946  17.5%  30.6   35s
H 4384   841                      84.0000000   70.09946  16.5%  29.1   36s
H 5152   835                      83.0000000   70.10298  15.5%  28.2   37s
  6323    69   76.18048   16   64   83.00000   75.00000  9.64%  25.2   40s

Cutting planes:
  Gomory: 4
  Cover: 51
  Implied bound: 381
  MIR: 414
  StrongCG: 1
  Inf proof: 74
  Mod-K: 2
  RLT: 95
  Relax-and-lift: 72

Explored 6863 nodes (172084 simplex iterations) in 41.24 seconds (2.00 work units)
Thread count was 32 (of 32 available processors)

Solution count 10: 83 84 85 ... 93

Optimal solution found (tolerance 1.00e-04)
Best objective 8.300000000000e+01, best bound 8.300000000000e+01, gap 0.0000%

Wrote result file 'RCPSP_249.sol'

